#############################
#Atoms types - mass - charge#
#############################
#@ 2 atom types #!THIS LINE IS NECESSARY DON'T SPEND HOURS FINDING THAT OUT!#

variable Ar equal 1
variable Heavy equal 2

#############
#Atom Masses#
#############

mass ${Ar}     39.948
mass ${Heavy}  100.0

pair_style   lj/cut 13.0
pair_coeff   * * 0.2381 3.405