Ar conventional FCC
1.0
  5.3760000000  0.0000000000  0.0000000000
  0.0000000000  5.3760000000  0.0000000000
  0.0000000000  0.0000000000  5.3760000000
Ar
4
Direct
  0.0000000000  0.0000000000  0.0000000000
  0.0000000000  0.5000000000  0.5000000000
  0.5000000000  0.0000000000  0.5000000000
  0.5000000000  0.5000000000  0.0000000000
