Ar3Xe conventional FCC from LAMMPS (a = 5.376 Å)
1.0
  5.3760000000  0.0000000000  0.0000000000
  0.0000000000  5.3760000000  0.0000000000
  0.0000000000  0.0000000000  5.3760000000
Ar Xe
3 1
Direct
  0.0000000000  0.0000000000  0.0000000000   # Ar (0,0,0)
  0.0000000000  0.5000000000  0.5000000000   # Ar (0,a/2,a/2)
  0.5000000000  0.0000000000  0.5000000000   # Ar (a/2,0,a/2)
  0.5000000000  0.5000000000  0.0000000000   # Xe (a/2,a/2,0)